# Generate a-Silicon out of c-Silicon

units 		metal

boundary 	p p p
atom_style	atomic

neighbor 		0.3 bin
neigh_modify	delay 1

lattice			diamond 5.432


#region			box block ${box_min} ${box_max} ${box_min} ${box_max} ${box_min} ${box_max}
region			base block 0 ${cell_size} 0 ${cell_size} 0 ${cell_size} units lattice
create_box		1 base
create_atoms	1 region base

#use Stillinger - Weber Potential to generate a-Si

mass			1 28.09
pair_style		sw
pair_coeff		* * Si.sw Si

#Melting Step

fix 			1 all nve
fix 			2 all temp/berendsen ${temp_lower} ${temp_upper} 0.1
#fix 			5 all press/berendsen iso 1.0 40000.0 1000.0

timestep		0.01
dump			1 all atom 100 dump.amorph
thermo_style	custom step atoms temp epair etotal press
thermo			100
thermo_modify	lost ignore flush yes

run 10000

#Quenching Step with optional Annhealing Step - ramp down 0.02K/fs

#fix 			2 all npt temp ${temp_lower} ${temp_lower} 0.1 iso 0.0 0.0 0.5
fix 			2 all temp/berendsen ${temp_upper} ${temp_upper} 0.1
#dump			2 all atom 100 dump.amorph2

run 4000

#fix 			2 all npt temp ${temp_upper} ${temp_anneal} 0.1 iso 0.0 0.0 0.5
fix 			2 all temp/berendsen ${temp_upper} ${temp_anneal} 0.1
#dump			3 all atom 100 dump.amorph3

run 10500

#fix 			2 all npt temp ${temp_anneal} ${temp_lower} 0.1 iso 0.0 0.0 0.5
fix 			2 all temp/berendsen ${temp_anneal} ${temp_lower} 0.1
#dump			5 all atom 100 dump.amorph5

run 5500

#equilibriate
fix 			2 all temp/berendsen ${temp_lower} ${temp_lower} 0.1
run 2000


write_data amorph.dat
