### Main Simulation - RIV          ###
### Alexander Toifl 	- E1228803 ###
### Christian Schleich 	- E1325958 ###

units 		metal
boundary 	p p p

atom_style	atomic

lattice			diamond 5.432

#region			box block 0 ${cell_size} 0 ${cell_size} ${box_min} ${box_max} units lattice
#create_box		1 box

#Load a-Si sample
read_data amorph.dat #add merge
variable tmp equal "lx"
variable L0 equal ${tmp}
print "Initial Length, L0: ${L0}"

neighbor 		0.3 bin
neigh_modify	delay 1

#use Tersoff Potential
mass			1 28.09
#pair_style		sw
#pair_coeff		* * Si.sw Si

pair_style	    tersoff/zbl
pair_coeff		* * SiC.tersoff.zbl Si

#pair_style	    tersoff
#pair_coeff		* * Si.tersoff Si

variable therstat_damp equal 1.0
variable barostat_damp equal 100.0

reset_timestep 0
timestep		0.001
fix 			1 all npt temp ${temp_lower} ${temp_lower} ${therstat_damp} iso 0.0 0.0 ${barostat_damp}

thermo_style custom step lx ly lz press pxx pyy pzz pe atoms temp 
thermo			100
thermo_modify	lost ignore flush yes

dump 1 all atom 50 dump_biax_recoil

#run 5000

################### Biaxial deformation ################################


fix 			1 all npt temp ${temp_lower} ${temp_lower} ${therstat_damp} z 0.0 0.0 ${barostat_damp}


#thermostat parameters
variable therstat_seed equal 23145
variable therstat_damp equal 0.5
#fix	    5 all temp/berendsen ${temp_lower} ${temp_lower} ${therstat_damp}

#fix	    4 all nvt/sllod temp ${temp_lower} ${temp_lower} ${therstat_damp}

thermo_style custom step lx ly lz press pxx pyy pzz pe atoms temp #c_4_temp

variable strainx equal "(lx - v_L0)/v_L0"
variable strainy equal "(ly - v_L0)/v_L0"
variable p1 equal "v_strainx"
variable p2 equal "v_strainy"
#Pressure in GPa
variable p3 equal "-pxx/10000"
variable p4 equal "-pyy/10000"
variable p5 equal "-pzz/10000"
fix def1 all print 100 "${p1} ${p2} ${p3} ${p4} ${p5}" file deformation.txt screen no

variable n_steps loop 40
variable deform_scale equal 0.9
variable scale_factor equal "(v_deform_scale)^(1./40.)" #exponent be 1 / n_steps - datatype!

label def

#deform in x direction
fix		3 all deform 1 y scale ${scale_factor} remap x
run 100
unfix 3

#deform in y direction
fix		3 all deform 1 x scale ${scale_factor} remap x
run 100
unfix 3

next n_steps
jump biax_recoil.in def


thermo_style custom step lx ly lz press pxx pyy pzz pe atoms temp 



#equilibration to achieve temperature ${temp_lower}
run 10000	

write_data deform.dat
