### Main Simulation - RIV          ###
### Alexander Toifl 	- E1228803 ###
### Christian Schleich 	- E1325958 ###

units 		metal
boundary 	p p s


#Load a-Si sample
read_data amorph.dat

variable temp_lower equal 10.
variable temp_upper equal 10.
variable massvar 	equal 28.09
variable unit_cell 	equal 4
variable eng_cell_k	equal 2#25		#Atoms per eV

variable i loop 10 #number of recoils
variable ekin equal 500							#eV
variable vel equal "(2*1.602*10^(-19.) * v_ekin/(v_massvar*1.6605*10^(-27)))^(1./2.) / 100."
variable v0 equal ${vel}
print "Velocity v: ${v0}"

variable cell_size	equal "floor((((v_ekin*v_i*v_eng_cell_k)/8.)^(1./3.)) + v_unit_cell) + 1"
print "Cell_size a: ${cell_size}"

variable tmp equal "lx"
variable L0 equal ${tmp}
print "Initial Length, L0: ${L0}"

neighbor 		0.3 bin
neigh_modify	delay 1

#use Tersoff Potential
mass			1 28.09
#pair_style		tersoff
#pair_coeff		* * Si.tersoff Si

pair_style		sw
pair_coeff		* * Si.sw Si

lattice			diamond 5.432


variable 4 equal 0.1

reset_timestep 0
timestep		0.001
fix 			1 all nve

thermo_style custom step lx ly lz press pxx pyy pzz pe atoms temp 
thermo			100
thermo_modify	lost ignore flush yes



dump 1 all atom 50 dump_biax_recoil

#thermostat parameters
#variable therstat_seed equal 23145
#variable therstat_damp equal 0.5
#fix	5 all temp/berendsen ${temp_lower} ${temp_lower} ${therstat_damp}



run 500
#unfix 5


################### Biaxial deformation ################################


#thermostat parameters
variable therstat_seed equal 23145
variable therstat_damp equal 0.5
#fix	    5 all temp/berendsen ${temp_lower} ${temp_lower} ${therstat_damp}

#fix	    4 all nvt/sllod temp ${temp_lower} ${temp_lower} ${therstat_damp}

thermo_style custom step lx ly lz press pxx pyy pzz pe atoms temp #c_4_temp

variable strainx equal "(lx - v_L0)/v_L0"
variable strainy equal "(ly - v_L0)/v_L0"
variable p1 equal "v_strainx"
variable p2 equal "v_strainy"
variable p3 equal "-pxx/100000"
variable p4 equal "-pyy/100000"
variable p5 equal "-pzz/100000"
fix def1 all print 100 "${p1} ${p2} ${p3} ${p4} ${p5}" file deformation.txt screen no

variable n_steps loop 40
variable deform_scale equal 0.9
variable scale_factor equal "(v_deform_scale)^(1./40.)" #exponent be 1 / n_steps - datatype!

label def

#deform in x direction
fix		3 all deform 1 y scale ${scale_factor} remap x
run 100
unfix 3

#deform in y direction
fix		3 all deform 1 x scale ${scale_factor} remap x
run 100
unfix 3

next n_steps
jump biax_recoil.in def

#thermostat parameters
#variable therstat_seed equal 23145
#variable therstat_damp equal 0.5
#fix	    5 all temp/berendsen ${temp_lower} ${temp_lower} ${therstat_damp}

#fix	    5 all nvt/sllod temp ${temp_lower} ${temp_lower} ${therstat_damp}


#unfix 5
#unfix 4


thermo_style custom step lx ly lz press pxx pyy pzz pe atoms temp 


#fix		3 all deform 5 z scale 2.0 remap none
#run 500

################# Thermostat and Zero Force Border #####################

#geometry 
variable zero_width equal 0.
variable therstat_width equal 5.0

variable zero_max_xy equal "(lx - v_zero_width)"
variable zero_max_z equal "(lz - v_zero_width)"

variable therstat_min equal "(v_zero_width + v_therstat_width)"
variable therstat_max_xy equal "(lx - v_zero_width - v_therstat_width)"
variable therstat_max_z equal "(lz - v_zero_width - v_therstat_width)"


variable therstat_damp equal 0.001

#zero force
#region     zero_force_inverse block ${zero_width} ${zero_max_xy} ${zero_width} ${zero_max_xy} ${zero_width} ${zero_max_z} units box
#group	   zero_force_inverse_group region zero_force_inverse
#group      zero_force subtract all  zero_force_inverse_group

#fix        4 zero_force setforce 0.0 0.0 0.0



#thermostat
region     therstat_inverse block ${therstat_min} ${therstat_max_xy} ${therstat_min} ${therstat_max_xy} ${therstat_min} ${therstat_max_z} units box
group	   therstat_inverse_group region therstat_inverse
group      thermo subtract all therstat_inverse_group

fix	    5 thermo temp/berendsen ${temp_lower} ${temp_lower} ${therstat_damp}


#equilibration to achieve temperature ${temp_lower}
run 20000


####################### Recoil Insertion ###############################
variable tmp2 equal "atoms"

#Start loop

label loop
#dump 1 all atom 100 testfile.$i

### Calculate velocity components

variable vx equal random(0,${vel},5974)
variable v1 equal ${vx}
variable vtemp1 equal "(v_v0^2 - v_v1^2)^(1./2.)"
variable vy equal random(0,${vtemp1},8795)
variable v2 equal ${vy}
variable vz equal "(v_v0^2 - v_v1^2 - v_v2^2)^(1./2.)"
print "Velocity vx: ${v1}"
print "Velocity vy: ${v2}"
print "Velocity vz: ${vz}"

#choose random atom 
variable rn_id equal floor(random(0,${tmp2},30491))
print "Random id: ${rn_id}"

#define group that contains the chosen atom
group ${i} id ${rn_id}
velocity ${i} set ${v1} ${v2} ${vz}


run 1000

#undump 1
next i
jump biax_recoil.in loop

### last equilibrium step - check
run 10000

