units 		metal
boundary 	p p p

lattice			diamond 5.432

variable box_min equal "v_cell_size * -0.2"
variable box_max equal "v_cell_size * 1.3"

read_data deform.dat #add merge

variable tmp equal "lx"
variable L0 equal ${tmp}
print "Initial Length, L0: ${L0}"

neighbor 		0.3 bin
neigh_modify	delay 1

#use Tersoff Potential
mass			* 28.09
#pair_style		tersoff
#pair_coeff		* * Si.tersoff Si

#pair_style		sw
#pair_coeff		* * Si.sw Si

pair_style	    tersoff/zbl
pair_coeff		* * SiC.tersoff.zbl Si

variable npt_therstat_damp equal 1000
variable therstat_damp equal 0.05
variable barostat_damp equal 1.

reset_timestep 0
timestep		0.001

fix 			1 all npt temp ${temp_lower} ${temp_lower} ${npt_therstat_damp} z 0.0 0.0 ${barostat_damp}

thermo_style 	custom step lx ly lz press pxx pyy pzz pe atoms temp dt
thermo			100
thermo_modify	lost ignore flush yes

variable strainx equal "(lx - v_L0)/v_L0"
variable strainy equal "(ly - v_L0)/v_L0"
variable p1 equal "v_strainx"
variable p2 equal "v_strainy"
#Pressure in GPa
variable p3 equal "-pxx/10000"
variable p4 equal "-pyy/10000"
variable p5 equal "-pzz/10000"
variable st equal "step"
variable at equal "atoms"
variable tst equal "dt"
variable tem equal "temp"
variable LX equal "lx"
variable LY equal "ly"
variable LZ equal "lz"
fix def1 all print 500 "${st} ${p1} ${p2} ${p3} ${p4} ${p5} ${at} ${tst} ${tem} ${LX} ${LY} ${LZ}" file recoil1.txt screen no

dump 1 all atom 200 dump_recoil

#thermostat parameters
#variable therstat_seed equal 23145
#variable therstat_damp equal 0.5
#fix	5 all temp/berendsen ${temp_lower} ${temp_lower} ${therstat_damp}


run 500
#unfix 5

################# Thermostat and Zero Force Border #####################

variable therstat_width equal 8.7

variable xl equal "xlo"
variable xh equal "xhi"

variable xt equal "(v_xl +v_therstat_width)"

variable yl equal "ylo"
variable yh equal "yhi"
variable yt equal "(v_yl +v_therstat_width)"

variable zl equal "zlo"
variable zh equal "zhi"
variable zt equal "(v_zl +v_therstat_width)"

#xy
region     therstat_xy block ${xl} ${xh} ${yl} ${yh} ${zl} ${zt}  units box
group	   therstat_xy_group dynamic all region therstat_xy every 10

#xz
region     therstat_xz block ${xl} ${xh} ${yl} ${yt} ${zl}  ${zh}  units box
group	   therstat_xz_group  dynamic all region  therstat_xz every 10

#yz
region     therstat_yz  block ${xl}   ${xt}  ${yl} ${yh}  ${zl} ${zh} units box
group	   therstat_yz_group  dynamic all region  therstat_yz every 10


fix	    51 therstat_xy_group temp/berendsen ${temp_lower} ${temp_lower} ${therstat_damp}
fix	    52 therstat_xz_group temp/berendsen ${temp_lower} ${temp_lower} ${therstat_damp}
fix	    53 therstat_yz_group temp/berendsen ${temp_lower} ${temp_lower} ${therstat_damp}


####################### Recoil Insertion ###############################
variable tmp2 equal "atoms"

variable x_max equal 0.01 # A
variable dt_min equal 0.00001 #ps
variable dt_max equal 10 #ps

fix 11 all dt/reset 1 ${dt_min} ${dt_max} ${x_max} units box
variable dt_new equal "v_x_max/v_vel"


#Start loop

label loop
#dump 1 all atom 100 testfile.$i


### Calculate velocity components

# This FIRST random seed is used for all the following random nr. calculations!!!!

variable th_max  equal "2*PI"

variable theta 	equal random(0,${th_max},${seed})
variable u   	equal random(-1,1,${seed})


variable th_tmp equal ${theta}
variable u_tmp equal ${u}


variable vx equal "v_vel * (1- v_u_tmp * v_u_tmp)^(0.5)*cos(v_th_tmp)"
# this random seed is NOT used
variable vy equal "v_vel*(1- v_u_tmp * v_u_tmp)^(0.5)*sin(v_th_tmp)"
variable vz equal "v_vel* v_u_tmp"
print "Velocity vx: ${vx}"
print "Velocity vy: ${vy}"
print "Velocity vz: ${vz}"

#choose random atom - this random seed is NOT used
variable rn_id equal floor(random(0,${tmp2},${seed})) 
variable a equal ${rn_id}
print "Random id: ${a}"

#define group that contains the chosen atom
group ${i} id ${a}
velocity ${i} set ${vx} ${vy} ${vz} units box


#reset_timestep 0
#timestep	${dt_new}

#30000 for recoil energy >= 500 eV, otherwise 20000 is sufficient
run 30000

#undump 1
next i
jump recoil1.in loop

### last equilibrium step - check
run 10000

variable j loop ${i_max}
label reset

velocity ${j} set 0.0 0.0 0.0 units box

next j
jump recoil1.in reset

write_data recoil1.dat

run 100
