
units 		metal
boundary 	p p p


lattice			diamond 5.432



variable box_min equal "v_cell_size * -0.2"
variable box_max equal "v_cell_size * 1.3"

#region			box block ${xy_min} ${cell_size} ${xy_min} ${cell_size} ${box_min} ${box_max} units lattice
#create_box		1 box

read_data deform.dat #add merge

variable tmp equal "lx"
variable L0 equal ${tmp}
print "Initial Length, L0: ${L0}"

neighbor 		0.3 bin
neigh_modify	delay 1

#use Tersoff Potential
mass			* 28.09
#pair_style		tersoff
#pair_coeff		* * Si.tersoff Si

pair_style		sw
pair_coeff		* * Si.sw Si

variable therstat_damp equal 0.4
variable barostat_damp equal 0.5

reset_timestep 0
timestep		0.001

fix 			1 all npt temp ${temp_lower} ${temp_lower} ${therstat_damp} z 0.0 0.0 ${barostat_damp}
#fix 			1 all nve

thermo_style custom step lx ly lz press pxx pyy pzz pe atoms temp 
thermo			100
thermo_modify	lost ignore flush yes

variable strainx equal "(lx - v_L0)/v_L0"
variable strainy equal "(ly - v_L0)/v_L0"
variable p1 equal "v_strainx"
variable p2 equal "v_strainy"
variable p3 equal "-pxx/100000"
variable p4 equal "-pyy/100000"
variable p5 equal "-pzz/100000"
fix def1 all print 500 "${p1} ${p2} ${p3} ${p4} ${p5}" file deformation_recoil.txt screen no

dump 1 all atom 200 dump_recoil

#thermostat parameters
#variable therstat_seed equal 23145
#variable therstat_damp equal 0.5
#fix	5 all temp/berendsen ${temp_lower} ${temp_lower} ${therstat_damp}


run 500
#unfix 5

################# Thermostat and Zero Force Border #####################

#geometry 
variable zero_width equal 0.
variable therstat_width equal 3.0

variable zero_max_xy equal "(lx - v_zero_width)"
variable zero_max_z equal "(lz - v_zero_width)"

variable therstat_min equal "(v_zero_width + v_therstat_width)"
variable therstat_max_xy equal "(lx - v_zero_width - v_therstat_width)"
variable therstat_max_z equal "(lz - v_zero_width - v_therstat_width)"


variable therstat_damp equal 0.4

#zero force
#region     zero_force_inverse block ${zero_width} ${zero_max_xy} ${zero_width} ${zero_max_xy} ${zero_width} ${zero_max_z} units box
#group	   zero_force_inverse_group region zero_force_inverse
#group      zero_force subtract all  zero_force_inverse_group

#fix        4 zero_force setforce 0.0 0.0 0.0



#thermostat
region     therstat_inverse block ${therstat_min} ${therstat_max_xy} ${therstat_min} ${therstat_max_xy} ${therstat_min} ${therstat_max_z} units box
group	   therstat_inverse_group region therstat_inverse
group      thermo subtract all therstat_inverse_group

fix	    5 thermo temp/berendsen ${temp_lower} ${temp_lower} ${therstat_damp}


####################### Recoil Insertion ###############################
variable tmp2 equal "atoms"

variable x_max equal 0.002# A
variable dt_min equal 0.000000001 #fs
variable dt_max equal 10 # fs

timestep ${dt_max}
fix 11 all dt/reset 1 ${dt_min} ${dt_max} ${x_max}

#Start loop

label loop
#dump 1 all atom 100 testfile.$i

### Calculate velocity components

# This FIRST random seed is used for all the following random nr. calculations!!!!
variable vx equal random(0,${vel},10516)
variable v1 equal ${vx}
variable vtemp1 equal "(v_v0^2 - v_v1^2)^(1./2.)"
# this random seed is NOT used
variable vy equal random(0,${vtemp1},2254)
variable v2 equal ${vy}
variable vz equal "(v_v0^2 - v_v1^2 - v_v2^2)^(1./2.)"
print "Velocity vx: ${v1}"
print "Velocity vy: ${v2}"
print "Velocity vz: ${vz}"

#choose random atom - this random seed is NOT used
variable rn_id equal floor(random(0,${tmp2},4025)) 
variable a equal ${rn_id}
print "Random id: ${a}"

#define group that contains the chosen atom
group ${i} id ${a}
velocity ${i} set ${v1} ${v2} ${vz}

run 10000

#undump 1
next i
jump recoil.in loop

fix 11 all dt/reset 1 ${dt_min} ${dt_max} ${x_max}
### last equilibrium step - check
run 20000

variable j loop ${i_max}
label reset

velocity ${j} set 0.0 0.0 0.0

next j
jump recoil.in reset

run 100

