units 		metal
boundary 	p p p

lattice			diamond 5.432

variable box_min equal "v_cell_size * -0.2"
variable box_max equal "v_cell_size * 1.3"

read_data recoil1.dat #add merge

variable tmp equal "lx"
variable L0 equal ${tmp}
print "Initial Length, L0: ${L0}"

neighbor 		0.3 bin
neigh_modify	delay 1

#use Tersoff Potential
mass			* 28.09
#pair_style		tersoff
#pair_coeff		* * Si.tersoff Si

pair_style		sw
pair_coeff		* * Si.sw Si

variable therstat_damp equal 0.1
variable barostat_damp equal 0.4

reset_timestep 0
timestep		0.001

fix 			1 all npt temp ${temp_lower} ${temp_lower} ${therstat_damp} z 0.0 0.0 ${barostat_damp}

thermo_style 	custom step lx ly lz press pxx pyy pzz pe atoms temp dt
thermo			100
thermo_modify	lost ignore flush yes

variable strainx equal "(lx - v_L0)/v_L0"
variable strainy equal "(ly - v_L0)/v_L0"
variable p1 equal "v_strainx"
variable p2 equal "v_strainy"
#Pressure in GPa
variable p3 equal "-pxx/10000"
variable p4 equal "-pyy/10000"
variable p5 equal "-pzz/10000"
fix def1 all print 500 "step ${p1} ${p2} ${p3} ${p4} ${p5}" file recoil2.txt screen no

dump 1 all atom 200 dump_recoil

#thermostat parameters
#variable therstat_seed equal 23145
#variable therstat_damp equal 0.5
#fix	5 all temp/berendsen ${temp_lower} ${temp_lower} ${therstat_damp}


#run 500
#unfix 5

################# Thermostat and Zero Force Border #####################

#geometry 
variable zero_width equal 0.
variable therstat_width equal 3.0

variable zero_max_xy equal "(lx - v_zero_width)"
variable zero_max_z equal "(lz - v_zero_width)"

variable therstat_min equal "(v_zero_width + v_therstat_width)"
variable therstat_max_xy equal "(lx - v_zero_width - v_therstat_width)"
variable therstat_max_z equal "(lz - v_zero_width - v_therstat_width)"

#thermostat
#region     therstat_xz block -INF INF ${therstat_min} ${therstat_max_xy} ${therstat_min} ${therstat_max_z} units box
#group	   therstat_inverse_group region therstat_inverse
#group      thermo subtract all therstat_inverse_group

#fix	    5 thermo temp/berendsen ${temp_lower} ${temp_lower} ${therstat_damp}


####################### Recoil Insertion ###############################
variable tmp2 equal "atoms"

variable x_max equal 0.002 # A
variable dt_min equal 0.00000001 #ps
variable dt_max equal 10 #ps

fix 11 all dt/reset 1 ${dt_min} ${dt_max} ${x_max} units box
variable dt_new equal "v_x_max/v_vel"


#Start loop

label loop
#dump 1 all atom 100 testfile.$i


### Calculate velocity components

# This FIRST random seed is used for all the following random nr. calculations!!!!

variable th_max  equal "PI"
variable phi_max equal "2*PI"

variable theta 	equal random(0,${th_max},10516)
variable phi   	equal random(0,${phi_max},10516)

variable th_tmp equal ${theta}
variable ph_tmp equal ${phi}


variable vx equal "v_vel*sin(v_th_tmp)*sin(v_ph_tmp)"
# this random seed is NOT used
variable vy equal "v_vel*sin(v_th_tmp)*cos(v_ph_tmp)"
variable vz equal "v_vel*cos(v_th_tmp)"
print "Velocity vx: ${vx}"
print "Velocity vy: ${vy}"
print "Velocity vz: ${vz}"

#choose random atom - this random seed is NOT used
variable rn_id equal floor(random(0,${tmp2},4025)) 
variable a equal ${rn_id}
print "Random id: ${a}"

#define group that contains the chosen atom
group ${i} id ${a}
velocity ${i} set ${vx} ${vy} ${vz} units box


#reset_timestep 0
#timestep	${dt_new}

run 10000

#undump 1
next i
jump recoil2.in loop

### last equilibrium step - check
run 20000

variable j loop ${i_max}
label reset

velocity ${j} set 0.0 0.0 0.0 units box

next j
jump recoil2.in reset

write_data recoil2.dat

run 100

