
units 		metal
boundary 	p p s

read_data deform.dat

variable temp_lower equal 10.
variable temp_upper equal 10.
variable massvar 	equal 28.09
variable unit_cell 	equal 4
variable eng_cell_k	equal 25		#Atoms per eV

variable i_max equal 1				#Nr. of recoils
variable i loop ${i_max}

variable ekin equal 80						#eV
variable vel equal "(2*1.602*10^(-19.) * v_ekin/(v_massvar*1.6605*10^(-27)))^(1./2.) / 100."
variable v0 equal ${vel}
print "Velocity v: ${v0}"

variable cell_size	equal "floor((((v_ekin*v_i*v_eng_cell_k)/8.)^(1./3.)) + v_unit_cell) + 1"
print "Cell_size a: ${cell_size}"

variable tmp equal "lx"
variable L0 equal ${tmp}
print "Initial Length, L0: ${L0}"

neighbor 		0.3 bin
neigh_modify	delay 1

#use Tersoff Potential
mass			1 28.09
#pair_style		tersoff
#pair_coeff		* * Si.tersoff Si

pair_style		sw
pair_coeff		* * Si.sw Si

lattice			diamond 5.432

reset_timestep 0
timestep		0.001
fix 			1 all nve

thermo_style custom step lx ly lz press pxx pyy pzz pe atoms temp 
thermo			100
thermo_modify	lost ignore flush yes

dump 1 all atom 50 dump_recoil

#thermostat parameters
#variable therstat_seed equal 23145
#variable therstat_damp equal 0.5
#fix	5 all temp/berendsen ${temp_lower} ${temp_lower} ${therstat_damp}


run 500
#unfix 5

################# Thermostat and Zero Force Border #####################

#geometry 
variable zero_width equal 0.
variable therstat_width equal 3.0

variable zero_max_xy equal "(lx - v_zero_width)"
variable zero_max_z equal "(lz - v_zero_width)"

variable therstat_min equal "(v_zero_width + v_therstat_width)"
variable therstat_max_xy equal "(lx - v_zero_width - v_therstat_width)"
variable therstat_max_z equal "(lz - v_zero_width - v_therstat_width)"


variable therstat_damp equal 0.001

#zero force
#region     zero_force_inverse block ${zero_width} ${zero_max_xy} ${zero_width} ${zero_max_xy} ${zero_width} ${zero_max_z} units box
#group	   zero_force_inverse_group region zero_force_inverse
#group      zero_force subtract all  zero_force_inverse_group

#fix        4 zero_force setforce 0.0 0.0 0.0



#thermostat
region     therstat_inverse block ${therstat_min} ${therstat_max_xy} ${therstat_min} ${therstat_max_xy} ${therstat_min} ${therstat_max_z} units box
group	   therstat_inverse_group region therstat_inverse
group      thermo subtract all therstat_inverse_group

fix	    5 thermo temp/berendsen ${temp_lower} ${temp_lower} ${therstat_damp}


####################### Recoil Insertion ###############################
variable tmp2 equal "atoms"

variable x_max equal 0.002# A
variable dt_min equal 0.000000001 #fs
variable dt_max equal 10 # fs

timestep ${dt_max}
fix 11 all dt/reset 1 ${dt_min} ${dt_max} ${x_max}

#Start loop

label loop
#dump 1 all atom 100 testfile.$i

### Calculate velocity components

# This FIRST random seed is used for all the following random nr. calculations!!!!
variable vx equal random(0,${vel},5974)
variable v1 equal ${vx}
variable vtemp1 equal "(v_v0^2 - v_v1^2)^(1./2.)"
# this random seed is NOT used
variable vy equal random(0,${vtemp1},2254)
variable v2 equal ${vy}
variable vz equal "(v_v0^2 - v_v1^2 - v_v2^2)^(1./2.)"
print "Velocity vx: ${v1}"
print "Velocity vy: ${v2}"
print "Velocity vz: ${vz}"

#choose random atom - this random seed is NOT used
variable rn_id equal floor(random(0,${tmp2},4025)) 
print "Random id: ${rn_id}"

#define group that contains the chosen atom
group ${i} id ${rn_id}
velocity ${i} set ${v1} ${v2} ${vz}



run 1000

#undump 1
next i
jump biax_recoil.in loop

### last equilibrium step - check
run 20000
